
Log started (V12.6.3.0) Tue Jun  6 16:47:35 2017

New value for default parallel thread count: 1

Problem '/tmp/tmpk7VyiE.pyomo.lp' read.
Read time = 0.00 sec. (0.01 ticks)

Problem name         : /tmp/tmpk7VyiE.pyomo.lp
Objective sense      : Minimize
Variables            :     162  [Nneg: 145,  Binary: 16,  General Integer: 1]
Objective nonzeros   :       1
Linear constraints   :      76  [Less: 16,  Equal: 60]
  Nonzeros           :     434
  RHS nonzeros       :      25

Variables            : Min LB: 0.000000         Max UB: 1.000000       
Objective nonzeros   : Min   : 1.000000         Max   : 1.000000       
Linear constraints   :
  Nonzeros           : Min   : 1.000000         Max   : 5055.600       
  RHS nonzeros       : Min   : 1.000000         Max   : 4128.000       
Tried aggregator 2 times.
MIP Presolve eliminated 34 rows and 98 columns.
Aggregator did 9 substitutions.
Reduced MIP has 33 rows, 55 columns, and 131 nonzeros.
Reduced MIP has 15 binaries, 0 generals, 0 SOSs, and 0 indicators.
Presolve time = 0.00 sec. (0.17 ticks)
Found incumbent of value 16.000000 after 0.00 sec. (0.32 ticks)
Probing time = 0.00 sec. (0.01 ticks)
Tried aggregator 1 time.
MIP Presolve eliminated 6 rows and 0 columns.
MIP Presolve added 12 rows and 0 columns.
Reduced MIP has 39 rows, 55 columns, and 137 nonzeros.
Reduced MIP has 15 binaries, 0 generals, 0 SOSs, and 0 indicators.
Presolve time = 0.00 sec. (0.09 ticks)
Probing time = 0.00 sec. (0.01 ticks)
Clique table members: 1.
MIP emphasis: balance optimality and feasibility.
MIP search method: dynamic search.
Parallel mode: none, using 1 thread.
Root relaxation solution time = 0.00 sec. (0.17 ticks)

        Nodes                                         Cuts/
   Node  Left     Objective  IInf  Best Integer    Best Bound    ItCnt     Gap

*     0+    0                           16.0000        1.0000            93.75%
      0     0        4.3699     4       16.0000        4.3699       41   72.69%
*     0+    0                            7.0000        4.3699            37.57%
      0     0        5.0066    10        7.0000      Cuts: 22       59   28.48%
      0     0        5.4137    13        7.0000      Cuts: 15       75   22.66%
      0     0        5.4433    13        7.0000      Cuts: 28       87   22.24%
      0     0        5.5181    12        7.0000      Cuts: 26       94   21.17%
      0     0        5.5196    14        7.0000       Cuts: 8       99   21.15%
      0     0        6.0000     9        7.0000      Cuts: 15      105   14.29%
      0     0        6.0000    13        7.0000      Cuts: 19      126   14.29%
      0     2        6.0000     4        7.0000        6.0000      126   14.29%
Elapsed time = 0.01 sec. (5.22 ticks, tree = 0.01 MB, solutions = 2)

Cover cuts applied:  1
Implied bound cuts applied:  3
Flow cuts applied:  4
Mixed integer rounding cuts applied:  7
Zero-half cuts applied:  1

Root node processing (before b&c):
  Real time             =    0.01 sec. (5.23 ticks)
Sequential b&c:
  Real time             =    0.00 sec. (3.67 ticks)
                          ------------
Total (root+branch&cut) =    0.01 sec. (8.90 ticks)

Solution pool: 2 solutions saved.

MIP - Integer optimal solution:  Objective =  7.0000000000e+00
Solution time =    0.01 sec.  Iterations = 621  Nodes = 59
Deterministic time = 8.90 ticks  (638.60 ticks/sec)


Incumbent solution written to file '/tmp/tmpJCe9Fd.cplex.sol'.

Log started (V12.6.3.0) Mon Jul 24 16:46:05 2017

New value for default parallel thread count: 1

Problem '/tmp/tmpmQ2LJo.pyomo.lp' read.
Read time = 0.00 sec. (0.01 ticks)

Problem name         : /tmp/tmpmQ2LJo.pyomo.lp
Objective sense      : Minimize
Variables            :     162  [Nneg: 145,  Binary: 16,  General Integer: 1]
Objective nonzeros   :       1
Linear constraints   :      76  [Less: 16,  Equal: 60]
  Nonzeros           :     434
  RHS nonzeros       :      25

Variables            : Min LB: 0.000000         Max UB: 1.000000       
Objective nonzeros   : Min   : 1.000000         Max   : 1.000000       
Linear constraints   :
  Nonzeros           : Min   : 1.000000         Max   : 5055.600       
  RHS nonzeros       : Min   : 1.000000         Max   : 4128.000       
Tried aggregator 2 times.
MIP Presolve eliminated 34 rows and 98 columns.
Aggregator did 9 substitutions.
Reduced MIP has 33 rows, 55 columns, and 131 nonzeros.
Reduced MIP has 15 binaries, 0 generals, 0 SOSs, and 0 indicators.
Presolve time = 0.00 sec. (0.17 ticks)
Found incumbent of value 16.000000 after 0.00 sec. (0.32 ticks)
Probing time = 0.00 sec. (0.01 ticks)
Tried aggregator 1 time.
MIP Presolve eliminated 6 rows and 0 columns.
MIP Presolve added 12 rows and 0 columns.
Reduced MIP has 39 rows, 55 columns, and 137 nonzeros.
Reduced MIP has 15 binaries, 0 generals, 0 SOSs, and 0 indicators.
Presolve time = 0.00 sec. (0.09 ticks)
Probing time = 0.00 sec. (0.01 ticks)
Clique table members: 1.
MIP emphasis: balance optimality and feasibility.
MIP search method: dynamic search.
Parallel mode: none, using 1 thread.
Root relaxation solution time = 0.00 sec. (0.17 ticks)

        Nodes                                         Cuts/
   Node  Left     Objective  IInf  Best Integer    Best Bound    ItCnt     Gap

*     0+    0                           16.0000        1.0000            93.75%
      0     0        4.3699     4       16.0000        4.3699       41   72.69%
*     0+    0                            7.0000        4.3699            37.57%
      0     0        5.0066    10        7.0000      Cuts: 22       59   28.48%
      0     0        5.4137    13        7.0000      Cuts: 15       75   22.66%
      0     0        5.4433    13        7.0000      Cuts: 28       87   22.24%
      0     0        5.5181    12        7.0000      Cuts: 26       94   21.17%
      0     0        5.5196    14        7.0000       Cuts: 8       99   21.15%
      0     0        6.0000     9        7.0000      Cuts: 15      105   14.29%
      0     0        6.0000    13        7.0000      Cuts: 19      126   14.29%
      0     2        6.0000     4        7.0000        6.0000      126   14.29%
Elapsed time = 0.01 sec. (5.22 ticks, tree = 0.01 MB, solutions = 2)

Cover cuts applied:  1
Implied bound cuts applied:  3
Flow cuts applied:  4
Mixed integer rounding cuts applied:  7
Zero-half cuts applied:  1

Root node processing (before b&c):
  Real time             =    0.01 sec. (5.23 ticks)
Sequential b&c:
  Real time             =    0.00 sec. (3.67 ticks)
                          ------------
Total (root+branch&cut) =    0.01 sec. (8.90 ticks)

Solution pool: 2 solutions saved.

MIP - Integer optimal solution:  Objective =  7.0000000000e+00
Solution time =    0.01 sec.  Iterations = 621  Nodes = 59
Deterministic time = 8.90 ticks  (622.69 ticks/sec)


Incumbent solution written to file '/tmp/tmp7UooOn.cplex.sol'.

Log started (V12.6.3.0) Mon Jul 24 16:58:59 2017

New value for default parallel thread count: 1

Problem '/tmp/tmpyxuksc.pyomo.lp' read.
Read time = 0.00 sec. (0.01 ticks)

Problem name         : /tmp/tmpyxuksc.pyomo.lp
Objective sense      : Minimize
Variables            :     162  [Nneg: 145,  Binary: 16,  General Integer: 1]
Objective nonzeros   :       1
Linear constraints   :      76  [Less: 16,  Equal: 60]
  Nonzeros           :     434
  RHS nonzeros       :      25

Variables            : Min LB: 0.000000         Max UB: 1.000000       
Objective nonzeros   : Min   : 1.000000         Max   : 1.000000       
Linear constraints   :
  Nonzeros           : Min   : 1.000000         Max   : 5055.600       
  RHS nonzeros       : Min   : 1.000000         Max   : 4128.000       
Tried aggregator 2 times.
MIP Presolve eliminated 34 rows and 98 columns.
Aggregator did 9 substitutions.
Reduced MIP has 33 rows, 55 columns, and 131 nonzeros.
Reduced MIP has 15 binaries, 0 generals, 0 SOSs, and 0 indicators.
Presolve time = 0.00 sec. (0.17 ticks)
Found incumbent of value 16.000000 after 0.00 sec. (0.32 ticks)
Probing time = 0.00 sec. (0.01 ticks)
Tried aggregator 1 time.
MIP Presolve eliminated 6 rows and 0 columns.
MIP Presolve added 12 rows and 0 columns.
Reduced MIP has 39 rows, 55 columns, and 137 nonzeros.
Reduced MIP has 15 binaries, 0 generals, 0 SOSs, and 0 indicators.
Presolve time = 0.00 sec. (0.09 ticks)
Probing time = 0.00 sec. (0.01 ticks)
Clique table members: 1.
MIP emphasis: balance optimality and feasibility.
MIP search method: dynamic search.
Parallel mode: none, using 1 thread.
Root relaxation solution time = 0.00 sec. (0.17 ticks)

        Nodes                                         Cuts/
   Node  Left     Objective  IInf  Best Integer    Best Bound    ItCnt     Gap

*     0+    0                           16.0000        1.0000            93.75%
      0     0        4.3699     4       16.0000        4.3699       41   72.69%
*     0+    0                            7.0000        4.3699            37.57%
      0     0        5.0066    10        7.0000      Cuts: 22       59   28.48%
      0     0        5.4137    13        7.0000      Cuts: 15       75   22.66%
      0     0        5.4433    13        7.0000      Cuts: 28       87   22.24%
      0     0        5.5181    12        7.0000      Cuts: 26       94   21.17%
      0     0        5.5196    14        7.0000       Cuts: 8       99   21.15%
      0     0        6.0000     9        7.0000      Cuts: 15      105   14.29%
      0     0        6.0000    13        7.0000      Cuts: 19      126   14.29%
      0     2        6.0000     4        7.0000        6.0000      126   14.29%
Elapsed time = 0.01 sec. (5.22 ticks, tree = 0.01 MB, solutions = 2)

Cover cuts applied:  1
Implied bound cuts applied:  3
Flow cuts applied:  4
Mixed integer rounding cuts applied:  7
Zero-half cuts applied:  1

Root node processing (before b&c):
  Real time             =    0.01 sec. (5.23 ticks)
Sequential b&c:
  Real time             =    0.00 sec. (3.67 ticks)
                          ------------
Total (root+branch&cut) =    0.01 sec. (8.90 ticks)

Solution pool: 2 solutions saved.

MIP - Integer optimal solution:  Objective =  7.0000000000e+00
Solution time =    0.01 sec.  Iterations = 621  Nodes = 59
Deterministic time = 8.90 ticks  (633.01 ticks/sec)


Incumbent solution written to file '/tmp/tmpB8zEV9.cplex.sol'.

Log started (V12.6.3.0) Wed Jul 26 16:03:17 2017

New value for default parallel thread count: 1

Problem '/tmp/tmpC_64Pn.pyomo.lp' read.
Read time = 0.00 sec. (0.01 ticks)

Problem name         : /tmp/tmpC_64Pn.pyomo.lp
Objective sense      : Minimize
Variables            :     162  [Nneg: 145,  Binary: 16,  General Integer: 1]
Objective nonzeros   :       1
Linear constraints   :      76  [Less: 16,  Equal: 60]
  Nonzeros           :     434
  RHS nonzeros       :      25

Variables            : Min LB: 0.000000         Max UB: 1.000000       
Objective nonzeros   : Min   : 1.000000         Max   : 1.000000       
Linear constraints   :
  Nonzeros           : Min   : 1.000000         Max   : 5055.600       
  RHS nonzeros       : Min   : 1.000000         Max   : 4128.000       
Tried aggregator 2 times.
MIP Presolve eliminated 34 rows and 98 columns.
Aggregator did 9 substitutions.
Reduced MIP has 33 rows, 55 columns, and 131 nonzeros.
Reduced MIP has 15 binaries, 0 generals, 0 SOSs, and 0 indicators.
Presolve time = 0.00 sec. (0.17 ticks)
Found incumbent of value 16.000000 after 0.00 sec. (0.32 ticks)
Probing time = 0.00 sec. (0.01 ticks)
Tried aggregator 1 time.
MIP Presolve eliminated 6 rows and 0 columns.
MIP Presolve added 12 rows and 0 columns.
Reduced MIP has 39 rows, 55 columns, and 137 nonzeros.
Reduced MIP has 15 binaries, 0 generals, 0 SOSs, and 0 indicators.
Presolve time = 0.00 sec. (0.09 ticks)
Probing time = 0.00 sec. (0.01 ticks)
Clique table members: 1.
MIP emphasis: balance optimality and feasibility.
MIP search method: dynamic search.
Parallel mode: none, using 1 thread.
Root relaxation solution time = 0.00 sec. (0.17 ticks)

        Nodes                                         Cuts/
   Node  Left     Objective  IInf  Best Integer    Best Bound    ItCnt     Gap

*     0+    0                           16.0000        1.0000            93.75%
      0     0        4.3699     4       16.0000        4.3699       41   72.69%
*     0+    0                            7.0000        4.3699            37.57%
      0     0        5.0066    10        7.0000      Cuts: 22       59   28.48%
      0     0        5.4137    13        7.0000      Cuts: 15       75   22.66%
      0     0        5.4433    13        7.0000      Cuts: 28       87   22.24%
      0     0        5.5181    12        7.0000      Cuts: 26       94   21.17%
      0     0        5.5196    14        7.0000       Cuts: 8       99   21.15%
      0     0        6.0000     9        7.0000      Cuts: 15      105   14.29%
      0     0        6.0000    13        7.0000      Cuts: 19      126   14.29%
      0     2        6.0000     4        7.0000        6.0000      126   14.29%
Elapsed time = 0.01 sec. (5.22 ticks, tree = 0.01 MB, solutions = 2)

Cover cuts applied:  1
Implied bound cuts applied:  3
Flow cuts applied:  4
Mixed integer rounding cuts applied:  7
Zero-half cuts applied:  1

Root node processing (before b&c):
  Real time             =    0.01 sec. (5.23 ticks)
Sequential b&c:
  Real time             =    0.00 sec. (3.67 ticks)
                          ------------
Total (root+branch&cut) =    0.01 sec. (8.90 ticks)

Solution pool: 2 solutions saved.

MIP - Integer optimal solution:  Objective =  7.0000000000e+00
Solution time =    0.01 sec.  Iterations = 621  Nodes = 59
Deterministic time = 8.90 ticks  (638.98 ticks/sec)


Incumbent solution written to file '/tmp/tmpLq7ZxZ.cplex.sol'.
